140
106
Academic license - for non-commercial use only
Optimize a model with 14870 rows, 19636 columns and 83186005 nonzeros
Variable types: 0 continuous, 19636 integer (19636 binary)
Coefficient statistics:
  Matrix range     [1e+00, 1e+00]
  Objective range  [5e+03, 2e+04]
  Bounds range     [1e+00, 1e+00]
  RHS range        [1e+00, 1e+00]
Found heuristic solution: objective 41564
Presolve removed 249 rows and 0 columns (presolve time = 12s) ...
Presolve removed 249 rows and 12 columns (presolve time = 15s) ...
Presolve removed 249 rows and 13 columns (presolve time = 20s) ...
Presolve removed 249 rows and 13 columns (presolve time = 25s) ...
Presolve removed 249 rows and 13 columns (presolve time = 30s) ...
Presolve removed 249 rows and 13 columns (presolve time = 39s) ...
Presolve removed 249 rows and 13 columns (presolve time = 41s) ...
Presolve removed 249 rows and 13 columns (presolve time = 53s) ...
Presolve removed 249 rows and 13 columns (presolve time = 56s) ...
Presolve removed 249 rows and 13 columns (presolve time = 83s) ...
Presolve removed 249 rows and 13 columns (presolve time = 85s) ...
Presolve removed 249 rows and 13 columns (presolve time = 90s) ...
Presolve removed 249 rows and 13 columns (presolve time = 95s) ...
Presolve removed 249 rows and 13 columns (presolve time = 100s) ...
Presolve removed 249 rows and 13 columns (presolve time = 105s) ...
Presolve removed 249 rows and 13 columns (presolve time = 110s) ...
Presolve removed 249 rows and 13 columns (presolve time = 115s) ...
Presolve removed 249 rows and 13 columns (presolve time = 120s) ...
Presolve removed 249 rows and 13 columns (presolve time = 125s) ...
Presolve removed 249 rows and 13 columns (presolve time = 130s) ...
Presolve removed 249 rows and 13 columns (presolve time = 135s) ...
Presolve removed 249 rows and 13 columns (presolve time = 140s) ...
Presolve removed 249 rows and 13 columns (presolve time = 145s) ...
Presolve removed 249 rows and 13 columns (presolve time = 150s) ...
Presolve removed 249 rows and 13 columns (presolve time = 155s) ...
Presolve removed 249 rows and 13 columns (presolve time = 160s) ...
Presolve removed 249 rows and 13 columns (presolve time = 165s) ...
Presolve removed 249 rows and 13 columns (presolve time = 170s) ...
Presolve removed 249 rows and 13 columns (presolve time = 175s) ...
Presolve removed 249 rows and 13 columns (presolve time = 180s) ...
Presolve removed 249 rows and 13 columns (presolve time = 185s) ...
Presolve removed 249 rows and 13 columns (presolve time = 190s) ...
Presolve removed 249 rows and 13 columns (presolve time = 195s) ...
Presolve removed 249 rows and 13 columns (presolve time = 200s) ...
Presolve removed 249 rows and 13 columns (presolve time = 205s) ...
Presolve removed 249 rows and 13 columns (presolve time = 210s) ...
Presolve removed 249 rows and 13 columns (presolve time = 215s) ...
Presolve removed 249 rows and 13 columns (presolve time = 220s) ...
Presolve removed 249 rows and 13 columns (presolve time = 225s) ...
Presolve removed 249 rows and 13 columns (presolve time = 230s) ...
Presolve removed 249 rows and 13 columns (presolve time = 235s) ...
Presolve removed 249 rows and 13 columns (presolve time = 240s) ...
Presolve removed 249 rows and 13 columns (presolve time = 245s) ...
Presolve removed 249 rows and 13 columns (presolve time = 250s) ...
Presolve removed 249 rows and 13 columns (presolve time = 255s) ...
Presolve removed 249 rows and 13 columns (presolve time = 260s) ...
Presolve removed 249 rows and 13 columns (presolve time = 265s) ...
Presolve removed 249 rows and 13 columns (presolve time = 270s) ...
Presolve removed 249 rows and 13 columns (presolve time = 275s) ...
Presolve removed 249 rows and 13 columns (presolve time = 280s) ...
Presolve removed 249 rows and 13 columns (presolve time = 285s) ...
Presolve removed 249 rows and 13 columns (presolve time = 290s) ...
Presolve removed 249 rows and 13 columns (presolve time = 296s) ...
Presolve removed 249 rows and 13 columns (presolve time = 300s) ...
Presolve removed 249 rows and 13 columns (presolve time = 306s) ...
Presolve removed 249 rows and 13 columns (presolve time = 311s) ...
Presolve removed 249 rows and 13 columns (presolve time = 315s) ...
Presolve removed 249 rows and 13 columns (presolve time = 320s) ...
Presolve removed 249 rows and 13 columns (presolve time = 325s) ...
Presolve removed 249 rows and 13 columns (presolve time = 333s) ...
Presolve removed 249 rows and 13 columns
Presolve time: 333.43s
Presolved: 14621 rows, 19623 columns, 83166634 nonzeros
Variable types: 0 continuous, 19623 integer (19623 binary)

Deterministic concurrent LP optimizer: primal and dual simplex
Showing first log only...

Presolve removed 0 rows and 0 columns (presolve time = 7s) ...
Presolved: 14621 rows, 19623 columns, 83166634 nonzeros


Root simplex log...

Iteration    Objective       Primal Inf.    Dual Inf.      Time
       0    4.9108000e+04   0.000000e+00   1.839046e+08    349s
    1461    4.9128874e+04   0.000000e+00   9.610621e+08    364s
    1662    4.9149121e+04   0.000000e+00   5.965416e+09    379s
    1865    5.8046034e+04   0.000000e+00   2.263838e+09    395s
    2061    5.8053821e+04   0.000000e+00   1.983639e+08    410s
    2258    5.8059076e+04   0.000000e+00   2.403226e+08    426s
    2453    5.8062741e+04   0.000000e+00   5.241705e+08    442s
    2646    5.8065658e+04   0.000000e+00   1.419146e+08    457s
    2841    5.8068279e+04   0.000000e+00   1.580585e+08    473s
    3035    5.8071711e+04   0.000000e+00   2.292456e+08    489s
    3229    5.8074673e+04   0.000000e+00   4.194648e+08    504s
    3423    5.8078104e+04   0.000000e+00   2.238430e+08    520s
    3617    5.8081361e+04   0.000000e+00   4.809605e+08    536s
    3813    5.8084135e+04   0.000000e+00   3.026119e+08    552s
    4007    5.8086778e+04   0.000000e+00   8.597492e+08    568s
    4200    5.8089919e+04   0.000000e+00   2.045361e+08    584s
    4394    5.8093072e+04   0.000000e+00   1.125557e+08    600s
    4588    5.8096417e+04   0.000000e+00   7.109167e+08    616s
    4782    5.8100119e+04   0.000000e+00   2.697582e+08    633s
    4975    5.8104060e+04   0.000000e+00   4.282135e+08    649s
    5169    5.8107513e+04   0.000000e+00   3.122523e+08    665s
    5362    5.8111296e+04   0.000000e+00   4.598674e+08    681s
    5555    5.8114885e+04   0.000000e+00   1.580339e+08    697s
    5750    5.8117995e+04   0.000000e+00   5.181303e+08    714s
    5941    5.8121256e+04   0.000000e+00   2.005667e+08    730s
    6135    5.8123886e+04   0.000000e+00   4.576385e+08    747s
    6328    5.8126669e+04   0.000000e+00   9.688733e+08    763s
    6522    5.8129910e+04   0.000000e+00   6.639891e+08    779s
    6714    5.8133838e+04   0.000000e+00   7.513196e+08    796s
    6909    5.8137051e+04   0.000000e+00   8.196195e+08    812s
    7101    5.8140720e+04   0.000000e+00   2.012140e+08    828s
    7293    5.8143856e+04   0.000000e+00   9.371543e+08    845s
    7486    5.8148022e+04   0.000000e+00   2.826077e+08    861s
    7680    5.8152420e+04   0.000000e+00   5.028498e+08    877s
    7874    5.8157051e+04   0.000000e+00   6.870271e+08    894s
    8070    5.8162605e+04   0.000000e+00   8.270295e+08    910s
    8264    5.8167166e+04   0.000000e+00   6.698392e+08    926s
    8457    5.8171315e+04   0.000000e+00   8.028125e+08    943s
    8649    5.8175972e+04   0.000000e+00   5.896441e+08    959s
    8841    5.8180607e+04   0.000000e+00   2.686706e+08    976s
    9032    5.8185722e+04   0.000000e+00   6.299588e+08    992s
    9225    5.8190833e+04   0.000000e+00   3.578162e+09   1009s
    9418    5.8196370e+04   0.000000e+00   6.501392e+08   1025s
    9611    5.8201722e+04   0.000000e+00   2.762972e+08   1041s
    9801    5.8207316e+04   0.000000e+00   3.335326e+08   1058s
    9994    5.8212025e+04   0.000000e+00   1.543545e+09   1074s
   10185    5.8217673e+04   0.000000e+00   1.190314e+09   1091s
   10376    5.8222614e+04   0.000000e+00   5.627043e+08   1107s
   10567    5.8227938e+04   0.000000e+00   6.447599e+08   1124s
   10758    5.8233132e+04   0.000000e+00   3.556797e+08   1140s
   10952    5.8239086e+04   0.000000e+00   3.360672e+08   1156s
   11145    5.8244822e+04   0.000000e+00   8.532778e+08   1173s
   11339    5.8251412e+04   0.000000e+00   1.377836e+09   1189s
   11532    5.8258305e+04   0.000000e+00   3.009116e+08   1206s
   11724    5.8264527e+04   0.000000e+00   3.932351e+08   1222s
   11918    5.8271094e+04   0.000000e+00   1.504962e+09   1238s
   12110    5.8277101e+04   0.000000e+00   5.886557e+08   1255s
   12303    5.8283780e+04   0.000000e+00   3.906198e+08   1271s
   12497    5.8290577e+04   0.000000e+00   5.046266e+08   1287s
   12691    5.8297553e+04   0.000000e+00   5.640032e+08   1304s
   12886    5.8303822e+04   0.000000e+00   4.218296e+08   1320s
   13078    5.8309616e+04   0.000000e+00   1.918409e+09   1337s
   13272    5.8315799e+04   0.000000e+00   4.994928e+08   1353s
   13465    5.8321445e+04   0.000000e+00   3.464814e+09   1370s
   13659    5.8328494e+04   0.000000e+00   9.171415e+08   1386s
   13852    5.8336698e+04   0.000000e+00   1.935169e+09   1403s
   14045    5.8346222e+04   0.000000e+00   1.172916e+09   1419s
   14239    5.8355564e+04   0.000000e+00   7.241614e+08   1436s
   14432    5.8365777e+04   0.000000e+00   3.750425e+09   1452s
   14626    5.8376801e+04   0.000000e+00   3.168152e+09   1467s
   14820    5.8386861e+04   0.000000e+00   3.700372e+08   1479s
   15014    5.8399080e+04   0.000000e+00   1.172403e+09   1491s
   15207    5.8407589e+04   0.000000e+00   3.169323e+09   1503s
   15400    5.8417734e+04   0.000000e+00   1.466185e+09   1515s
   15593    5.8428483e+04   0.000000e+00   3.541077e+09   1528s
   15786    5.8440493e+04   0.000000e+00   1.955151e+09   1540s
   15980    5.8455652e+04   0.000000e+00   1.393375e+09   1552s
   16174    5.8470428e+04   0.000000e+00   1.543986e+10   1564s
   16368    5.8486061e+04   0.000000e+00   2.206721e+09   1576s
   16560    5.8500248e+04   0.000000e+00   1.072780e+09   1588s
   16754    5.8513331e+04   0.000000e+00   7.862804e+08   1600s
   16947    5.8527317e+04   0.000000e+00   1.517932e+09   1612s
   17140    5.8541609e+04   0.000000e+00   8.715499e+09   1624s
Concurrent spin time: 169.02s

Solved with dual simplex

Root relaxation: objective 6.178533e+04, 59038 iterations, 1293.37 seconds
Total elapsed time = 1654.68s

    Nodes    |    Current Node    |     Objective Bounds      |     Work
 Expl Unexpl |  Obj  Depth IntInf | Incumbent    BestBd   Gap | It/Node Time

     0     0 61785.3296    0  115 41564.0000 61785.3296  48.7%     - 1660s
H    0     0                    61275.000000 61785.3296  0.83%     - 1678s

Explored 1 nodes (60043 simplex iterations) in 1800.30 seconds
Thread count was 8 (of 8 available processors)

Solution count 2: 61275 41564 

Time limit reached
Best objective 6.127500000000e+04, best bound 6.178500000000e+04, gap 0.8323%
Obj: 61275
